data/CVRPLIB/Vrp-Set-XML100/instances/XML100_3112_11.vrp
NAME : XML100_3112_11
COMMENT : Generated by Queiroga, Sadykov, Uchoa, and Vidal (2021)
TYPE : CVRP
DIMENSION : 101
EDGE_WEIGHT_TYPE : EUC_2D
CAPACITY : 6
NODE_COORD_SECTION
1    0    0   
2    222  489 
3    918  226 
4    250  273 
5    200  550 
6    779  81  
7    907  766 
8    140  960 
9    292  208 
10   148  905 
11   763  402 
12   72   5   
13   630  992 
14   785  900 
15   612  8   
16   674  968 
17   152  537 
18   656  832 
19   666  992 
20   48   275 
21   368  908 
22   906  713 
23   836  266 
24   77   247 
25   97   25  
26   434  859 
27   450  226 
28   246  226 
29   768  966 
30   509  172 
31   324  633 
32   291  837 
33   549  169 
34   96   238 
35   661  874 
36   543  284 
37   555  101 
38   54   527 
39   77   965 
40   460  467 
41   931  915 
42   120  662 
43   666  294 
44   342  817 
45   795  715 
46   646  978 
47   229  875 
48   359  935 
49   996  955 
50   485  563 
51   226  386 
52   612  98  
53   483  558 
54   319  262 
55   57   312 
56   536  122 
57   913  99  
58   641  765 
59   787  350 
60   222  358 
61   234  991 
62   527  802 
63   407  456 
64   289  484 
65   236  798 
66   20   465 
67   60   506 
68   891  527 
69   946  750 
70   572  809 
71   881  276 
72   473  295 
73   601  962 
74   512  982 
75   484  147 
76   875  482 
77   756  619 
78   421  444 
79   138  767 
80   886  173 
81   541  480 
82   637  931 
83   804  322 
84   839  374 
85   293  963 
86   845  886 
87   497  966 
88   4    755 
89   761  441 
90   308  203 
91   224  880 
92   916  681 
93   699  299 
94   296  366 
95   320  24  
96   571  838 
97   341  356 
98   241  281 
99   131  80  
100  41   390 
101  458  393 
DEMAND_SECTION
1    0   
2    1   
3    1   
4    1   
5    1   
6    1   
7    1   
8    1   
9    1   
10   1   
11   1   
12   1   
13   1   
14   1   
15   1   
16   1   
17   1   
18   1   
19   1   
20   1   
21   1   
22   1   
23   1   
24   1   
25   1   
26   1   
27   1   
28   1   
29   1   
30   1   
31   1   
32   1   
33   1   
34   1   
35   1   
36   1   
37   1   
38   1   
39   1   
40   1   
41   1   
42   1   
43   1   
44   1   
45   1   
46   1   
47   1   
48   1   
49   1   
50   1   
51   1   
52   1   
53   1   
54   1   
55   1   
56   1   
57   1   
58   1   
59   1   
60   1   
61   1   
62   1   
63   1   
64   1   
65   1   
66   1   
67   1   
68   1   
69   1   
70   1   
71   1   
72   1   
73   1   
74   1   
75   1   
76   1   
77   1   
78   1   
79   1   
80   1   
81   1   
82   1   
83   1   
84   1   
85   1   
86   1   
87   1   
88   1   
89   1   
90   1   
91   1   
92   1   
93   1   
94   1   
95   1   
96   1   
97   1   
98   1   
99   1   
100  1   
101  1   
DEPOT_SECTION
1
-1
EOF
