data/CVRPLIB/Vrp-Set-XML100/solutions/XML100_3112_11.sol
Route #1: 41 78 9 7 38 87
Route #2: 59 50 63 1 4 16
Route #3: 74 29 32 55 36 94
Route #4: 30 61 69 95 17 57
Route #5: 13 85 40 48 28 34
Route #6: 76 91 21 68 6 44
Route #7: 72 12 45 18 15 81
Route #8: 19 54 99 66 37 65
Route #9: 70 2 79 56 5 14
Route #10: 26 71 100 96 93 97
Route #11: 31 84 60 90 46 64
Route #12: 43 20 47 73 86 25
Route #13: 10 88 67 75 83 58
Route #14: 62 52 49 80 39 77
Route #15: 11 24 33 23
Route #16: 51 22 82 92 42 35
Route #17: 27 3 53 89 8 98
Cost 30401
